p edge 138 1191
v 1 229
v 2 285
v 3 386
v 4 346
v 5 529
v 6 489
v 7 410
v 8 662
v 9 663
v 10 509
v 11 508
v 12 326
v 13 506
v 14 402
v 15 622
v 16 611
v 17 254
v 18 678
v 19 265
v 20 297
v 21 323
v 22 579
v 23 210
v 24 320
v 25 632
v 26 370
v 27 356
v 28 464
v 29 566
v 30 325
v 31 303
v 32 394
v 33 530
v 34 611
v 35 640
v 36 607
v 37 490
v 38 347
v 39 348
v 40 291
v 41 641
v 42 512
v 43 349
v 44 221
v 45 462
v 46 414
v 47 562
v 48 525
v 49 615
v 50 345
v 51 456
v 52 687
v 53 606
v 54 209
v 55 245
v 56 523
v 57 586
v 58 458
v 59 296
v 60 289
v 61 510
v 62 496
v 63 415
v 64 626
v 65 252
v 66 245
v 67 250
v 68 507
v 69 384
v 70 223
v 71 488
v 72 657
v 73 436
v 74 344
v 75 308
v 76 425
v 77 703
v 78 568
v 79 548
v 80 217
v 81 563
v 82 246
v 83 522
v 84 401
v 85 533
v 86 335
v 87 465
v 88 216
v 89 503
v 90 242
v 91 502
v 92 549
v 93 473
v 94 305
v 95 213
v 96 395
v 97 616
v 98 544
v 99 606
v 100 299
v 101 293
v 102 258
v 103 350
v 104 317
v 105 313
v 106 289
v 107 477
v 108 368
v 109 229
v 110 259
v 111 249
v 112 439
v 113 274
v 114 247
v 115 462
v 116 417
v 117 494
v 118 566
v 119 656
v 120 330
v 121 665
v 122 312
v 123 596
v 124 631
v 125 312
v 126 209
v 127 633
v 128 218
v 129 288
v 130 554
v 131 407
v 132 266
v 133 248
v 134 514
v 135 292
v 136 668
v 137 344
v 138 340
e 1 2
e 1 3
e 1 4
e 1 5
e 1 6
e 1 7
e 1 8
e 1 9
e 1 10
e 1 11
e 1 22
e 1 40
e 1 52
e 1 72
e 1 110
e 2 3
e 2 4
e 2 5
e 2 6
e 2 7
e 2 8
e 2 9
e 2 10
e 2 12
e 2 41
e 2 53
e 2 73
e 2 83
e 2 89
e 2 94
e 2 103
e 2 111
e 2 119
e 3 4
e 3 5
e 3 6
e 3 7
e 3 8
e 3 9
e 3 10
e 3 30
e 3 54
e 3 62
e 3 84
e 3 95
e 3 104
e 3 112
e 3 130
e 4 5
e 4 6
e 4 7
e 4 8
e 4 9
e 4 10
e 4 14
e 4 24
e 4 32
e 4 43
e 4 56
e 4 64
e 4 75
e 4 105
e 4 121
e 4 132
e 5 6
e 5 7
e 5 8
e 5 9
e 5 10
e 5 15
e 5 25
e 5 57
e 5 65
e 5 76
e 5 85
e 5 96
e 5 114
e 5 122
e 5 133
e 6 7
e 6 8
e 6 9
e 6 10
e 6 16
e 6 44
e 6 58
e 6 77
e 6 90
e 6 106
e 6 115
e 6 123
e 7 8
e 7 9
e 7 10
e 7 17
e 7 33
e 7 45
e 7 66
e 7 91
e 7 97
e 7 107
e 7 124
e 8 9
e 8 10
e 8 18
e 8 34
e 8 46
e 8 78
e 8 98
e 8 116
e 9 10
e 9 20
e 9 27
e 9 37
e 9 49
e 9 68
e 9 80
e 9 92
e 9 100
e 9 109
e 9 118
e 9 126
e 9 136
e 10 21
e 10 38
e 10 50
e 10 60
e 10 70
e 10 81
e 10 93
e 10 101
e 10 128
e 11 12
e 11 13
e 11 14
e 11 15
e 11 16
e 11 17
e 11 18
e 11 19
e 11 20
e 11 21
e 11 22
e 11 40
e 11 52
e 11 72
e 11 110
e 12 13
e 12 14
e 12 15
e 12 16
e 12 17
e 12 18
e 12 19
e 12 20
e 12 21
e 12 41
e 12 53
e 12 73
e 12 83
e 12 89
e 12 94
e 12 103
e 12 111
e 12 119
e 13 14
e 13 15
e 13 16
e 13 17
e 13 18
e 13 19
e 13 20
e 13 21
e 13 23
e 13 31
e 13 42
e 13 55
e 13 63
e 13 74
e 13 113
e 13 120
e 13 131
e 14 15
e 14 16
e 14 17
e 14 18
e 14 19
e 14 20
e 14 21
e 14 24
e 14 32
e 14 43
e 14 56
e 14 64
e 14 75
e 14 105
e 14 121
e 14 132
e 15 16
e 15 17
e 15 18
e 15 19
e 15 20
e 15 21
e 15 25
e 15 57
e 15 65
e 15 76
e 15 85
e 15 96
e 15 114
e 15 122
e 15 133
e 16 17
e 16 18
e 16 19
e 16 20
e 16 21
e 16 44
e 16 58
e 16 77
e 16 90
e 16 106
e 16 115
e 16 123
e 17 18
e 17 19
e 17 20
e 17 21
e 17 33
e 17 45
e 17 66
e 17 91
e 17 97
e 17 107
e 17 124
e 18 19
e 18 20
e 18 21
e 18 34
e 18 46
e 18 78
e 18 98
e 18 116
e 19 20
e 19 21
e 19 26
e 19 36
e 19 48
e 19 59
e 19 86
e 19 99
e 19 108
e 19 125
e 19 135
e 20 21
e 20 27
e 20 37
e 20 49
e 20 68
e 20 80
e 20 92
e 20 100
e 20 109
e 20 118
e 20 126
e 20 136
e 21 38
e 21 50
e 21 60
e 21 70
e 21 81
e 21 93
e 21 101
e 21 128
e 22 23
e 22 24
e 22 25
e 22 26
e 22 27
e 22 28
e 22 29
e 22 40
e 22 52
e 22 72
e 22 110
e 23 24
e 23 25
e 23 26
e 23 27
e 23 28
e 23 29
e 23 31
e 23 42
e 23 55
e 23 63
e 23 74
e 23 113
e 23 120
e 23 131
e 24 25
e 24 26
e 24 27
e 24 28
e 24 29
e 24 32
e 24 43
e 24 56
e 24 64
e 24 75
e 24 105
e 24 121
e 24 132
e 25 26
e 25 27
e 25 28
e 25 29
e 25 57
e 25 65
e 25 76
e 25 85
e 25 96
e 25 114
e 25 122
e 25 133
e 26 27
e 26 28
e 26 29
e 26 36
e 26 48
e 26 59
e 26 86
e 26 99
e 26 108
e 26 125
e 26 135
e 27 28
e 27 29
e 27 37
e 27 49
e 27 68
e 27 80
e 27 92
e 27 100
e 27 109
e 27 118
e 27 126
e 27 136
e 28 29
e 28 69
e 28 87
e 28 127
e 28 137
e 29 39
e 29 51
e 29 61
e 29 71
e 29 82
e 29 88
e 29 102
e 29 129
e 29 138
e 30 31
e 30 32
e 30 33
e 30 34
e 30 35
e 30 36
e 30 37
e 30 38
e 30 39
e 30 54
e 30 62
e 30 84
e 30 95
e 30 104
e 30 112
e 30 130
e 31 32
e 31 33
e 31 34
e 31 35
e 31 36
e 31 37
e 31 38
e 31 39
e 31 42
e 31 55
e 31 63
e 31 74
e 31 113
e 31 120
e 31 131
e 32 33
e 32 34
e 32 35
e 32 36
e 32 37
e 32 38
e 32 39
e 32 43
e 32 56
e 32 64
e 32 75
e 32 105
e 32 121
e 32 132
e 33 34
e 33 35
e 33 36
e 33 37
e 33 38
e 33 39
e 33 45
e 33 66
e 33 91
e 33 97
e 33 107
e 33 124
e 34 35
e 34 36
e 34 37
e 34 38
e 34 39
e 34 46
e 34 78
e 34 98
e 34 116
e 35 36
e 35 37
e 35 38
e 35 39
e 35 47
e 35 67
e 35 79
e 35 117
e 35 134
e 36 37
e 36 38
e 36 39
e 36 48
e 36 59
e 36 86
e 36 99
e 36 108
e 36 125
e 36 135
e 37 38
e 37 39
e 37 49
e 37 68
e 37 80
e 37 92
e 37 100
e 37 109
e 37 118
e 37 126
e 37 136
e 38 39
e 38 50
e 38 60
e 38 70
e 38 81
e 38 93
e 38 101
e 38 128
e 39 51
e 39 61
e 39 71
e 39 82
e 39 88
e 39 102
e 39 129
e 39 138
e 40 41
e 40 42
e 40 43
e 40 44
e 40 45
e 40 46
e 40 47
e 40 48
e 40 49
e 40 50
e 40 51
e 40 52
e 40 72
e 40 110
e 41 42
e 41 43
e 41 44
e 41 45
e 41 46
e 41 47
e 41 48
e 41 49
e 41 50
e 41 51
e 41 53
e 41 73
e 41 83
e 41 89
e 41 94
e 41 103
e 41 111
e 41 119
e 42 43
e 42 44
e 42 45
e 42 46
e 42 47
e 42 48
e 42 49
e 42 50
e 42 51
e 42 55
e 42 63
e 42 74
e 42 113
e 42 120
e 42 131
e 43 44
e 43 45
e 43 46
e 43 47
e 43 48
e 43 49
e 43 50
e 43 51
e 43 56
e 43 64
e 43 75
e 43 105
e 43 121
e 43 132
e 44 45
e 44 46
e 44 47
e 44 48
e 44 49
e 44 50
e 44 51
e 44 58
e 44 77
e 44 90
e 44 106
e 44 115
e 44 123
e 45 46
e 45 47
e 45 48
e 45 49
e 45 50
e 45 51
e 45 66
e 45 91
e 45 97
e 45 107
e 45 124
e 46 47
e 46 48
e 46 49
e 46 50
e 46 51
e 46 78
e 46 98
e 46 116
e 47 48
e 47 49
e 47 50
e 47 51
e 47 67
e 47 79
e 47 117
e 47 134
e 48 49
e 48 50
e 48 51
e 48 59
e 48 86
e 48 99
e 48 108
e 48 125
e 48 135
e 49 50
e 49 51
e 49 68
e 49 80
e 49 92
e 49 100
e 49 109
e 49 118
e 49 126
e 49 136
e 50 51
e 50 60
e 50 70
e 50 81
e 50 93
e 50 101
e 50 128
e 51 61
e 51 71
e 51 82
e 51 88
e 51 102
e 51 129
e 51 138
e 52 53
e 52 54
e 52 55
e 52 56
e 52 57
e 52 58
e 52 59
e 52 60
e 52 61
e 52 72
e 52 110
e 53 54
e 53 55
e 53 56
e 53 57
e 53 58
e 53 59
e 53 60
e 53 61
e 53 73
e 53 83
e 53 89
e 53 94
e 53 103
e 53 111
e 53 119
e 54 55
e 54 56
e 54 57
e 54 58
e 54 59
e 54 60
e 54 61
e 54 62
e 54 84
e 54 95
e 54 104
e 54 112
e 54 130
e 55 56
e 55 57
e 55 58
e 55 59
e 55 60
e 55 61
e 55 63
e 55 74
e 55 113
e 55 120
e 55 131
e 56 57
e 56 58
e 56 59
e 56 60
e 56 61
e 56 64
e 56 75
e 56 105
e 56 121
e 56 132
e 57 58
e 57 59
e 57 60
e 57 61
e 57 65
e 57 76
e 57 85
e 57 96
e 57 114
e 57 122
e 57 133
e 58 59
e 58 60
e 58 61
e 58 77
e 58 90
e 58 106
e 58 115
e 58 123
e 59 60
e 59 61
e 59 86
e 59 99
e 59 108
e 59 125
e 59 135
e 60 61
e 60 70
e 60 81
e 60 93
e 60 101
e 60 128
e 61 71
e 61 82
e 61 88
e 61 102
e 61 129
e 61 138
e 62 63
e 62 64
e 62 65
e 62 66
e 62 67
e 62 68
e 62 69
e 62 70
e 62 71
e 62 84
e 62 95
e 62 104
e 62 112
e 62 130
e 63 64
e 63 65
e 63 66
e 63 67
e 63 68
e 63 69
e 63 70
e 63 71
e 63 74
e 63 113
e 63 120
e 63 131
e 64 65
e 64 66
e 64 67
e 64 68
e 64 69
e 64 70
e 64 71
e 64 75
e 64 105
e 64 121
e 64 132
e 65 66
e 65 67
e 65 68
e 65 69
e 65 70
e 65 71
e 65 76
e 65 85
e 65 96
e 65 114
e 65 122
e 65 133
e 66 67
e 66 68
e 66 69
e 66 70
e 66 71
e 66 91
e 66 97
e 66 107
e 66 124
e 67 68
e 67 69
e 67 70
e 67 71
e 67 79
e 67 117
e 67 134
e 68 69
e 68 70
e 68 71
e 68 80
e 68 92
e 68 100
e 68 109
e 68 118
e 68 126
e 68 136
e 69 70
e 69 71
e 69 87
e 69 127
e 69 137
e 70 71
e 70 81
e 70 93
e 70 101
e 70 128
e 71 82
e 71 88
e 71 102
e 71 129
e 71 138
e 72 73
e 72 74
e 72 75
e 72 76
e 72 77
e 72 78
e 72 79
e 72 80
e 72 81
e 72 82
e 72 110
e 73 74
e 73 75
e 73 76
e 73 77
e 73 78
e 73 79
e 73 80
e 73 81
e 73 82
e 73 83
e 73 89
e 73 94
e 73 103
e 73 111
e 73 119
e 74 75
e 74 76
e 74 77
e 74 78
e 74 79
e 74 80
e 74 81
e 74 82
e 74 113
e 74 120
e 74 131
e 75 76
e 75 77
e 75 78
e 75 79
e 75 80
e 75 81
e 75 82
e 75 105
e 75 121
e 75 132
e 76 77
e 76 78
e 76 79
e 76 80
e 76 81
e 76 82
e 76 85
e 76 96
e 76 114
e 76 122
e 76 133
e 77 78
e 77 79
e 77 80
e 77 81
e 77 82
e 77 90
e 77 106
e 77 115
e 77 123
e 78 79
e 78 80
e 78 81
e 78 82
e 78 98
e 78 116
e 79 80
e 79 81
e 79 82
e 79 117
e 79 134
e 80 81
e 80 82
e 80 92
e 80 100
e 80 109
e 80 118
e 80 126
e 80 136
e 81 82
e 81 93
e 81 101
e 81 128
e 82 88
e 82 102
e 82 129
e 82 138
e 83 84
e 83 85
e 83 86
e 83 87
e 83 88
e 83 89
e 83 94
e 83 103
e 83 111
e 83 119
e 84 85
e 84 86
e 84 87
e 84 88
e 84 95
e 84 104
e 84 112
e 84 130
e 85 86
e 85 87
e 85 88
e 85 96
e 85 114
e 85 122
e 85 133
e 86 87
e 86 88
e 86 99
e 86 108
e 86 125
e 86 135
e 87 88
e 87 127
e 87 137
e 88 102
e 88 129
e 88 138
e 89 90
e 89 91
e 89 92
e 89 93
e 89 94
e 89 103
e 89 111
e 89 119
e 90 91
e 90 92
e 90 93
e 90 106
e 90 115
e 90 123
e 91 92
e 91 93
e 91 97
e 91 107
e 91 124
e 92 93
e 92 100
e 92 109
e 92 118
e 92 126
e 92 136
e 93 101
e 93 128
e 94 95
e 94 96
e 94 97
e 94 98
e 94 99
e 94 100
e 94 101
e 94 102
e 94 103
e 94 111
e 94 119
e 95 96
e 95 97
e 95 98
e 95 99
e 95 100
e 95 101
e 95 102
e 95 104
e 95 112
e 95 130
e 96 97
e 96 98
e 96 99
e 96 100
e 96 101
e 96 102
e 96 114
e 96 122
e 96 133
e 97 98
e 97 99
e 97 100
e 97 101
e 97 102
e 97 107
e 97 124
e 98 99
e 98 100
e 98 101
e 98 102
e 98 116
e 99 100
e 99 101
e 99 102
e 99 108
e 99 125
e 99 135
e 100 101
e 100 102
e 100 109
e 100 118
e 100 126
e 100 136
e 101 102
e 101 128
e 102 129
e 102 138
e 103 104
e 103 105
e 103 106
e 103 107
e 103 108
e 103 109
e 103 111
e 103 119
e 104 105
e 104 106
e 104 107
e 104 108
e 104 109
e 104 112
e 104 130
e 105 106
e 105 107
e 105 108
e 105 109
e 105 121
e 105 132
e 106 107
e 106 108
e 106 109
e 106 115
e 106 123
e 107 108
e 107 109
e 107 124
e 108 109
e 108 125
e 108 135
e 109 118
e 109 126
e 109 136
e 110 111
e 110 112
e 110 113
e 110 114
e 110 115
e 110 116
e 110 117
e 110 118
e 111 112
e 111 113
e 111 114
e 111 115
e 111 116
e 111 117
e 111 118
e 111 119
e 112 113
e 112 114
e 112 115
e 112 116
e 112 117
e 112 118
e 112 130
e 113 114
e 113 115
e 113 116
e 113 117
e 113 118
e 113 120
e 113 131
e 114 115
e 114 116
e 114 117
e 114 118
e 114 122
e 114 133
e 115 116
e 115 117
e 115 118
e 115 123
e 116 117
e 116 118
e 117 118
e 117 134
e 118 126
e 118 136
e 119 120
e 119 121
e 119 122
e 119 123
e 119 124
e 119 125
e 119 126
e 119 127
e 119 128
e 119 129
e 120 121
e 120 122
e 120 123
e 120 124
e 120 125
e 120 126
e 120 127
e 120 128
e 120 129
e 120 131
e 121 122
e 121 123
e 121 124
e 121 125
e 121 126
e 121 127
e 121 128
e 121 129
e 121 132
e 122 123
e 122 124
e 122 125
e 122 126
e 122 127
e 122 128
e 122 129
e 122 133
e 123 124
e 123 125
e 123 126
e 123 127
e 123 128
e 123 129
e 124 125
e 124 126
e 124 127
e 124 128
e 124 129
e 125 126
e 125 127
e 125 128
e 125 129
e 125 135
e 126 127
e 126 128
e 126 129
e 126 136
e 127 128
e 127 129
e 127 137
e 128 129
e 129 138
e 130 131
e 130 132
e 130 133
e 130 134
e 130 135
e 130 136
e 130 137
e 130 138
e 131 132
e 131 133
e 131 134
e 131 135
e 131 136
e 131 137
e 131 138
e 132 133
e 132 134
e 132 135
e 132 136
e 132 137
e 132 138
e 133 134
e 133 135
e 133 136
e 133 137
e 133 138
e 134 135
e 134 136
e 134 137
e 134 138
e 135 136
e 135 137
e 135 138
e 136 137
e 136 138
e 137 138
